%nprocshared=112
%mem=10GB
%chk=Go_6976.chk
# opt freq b3lyp/6-311++g(d,p) scrf=(pcm,solvent=water) geom=connectivity

3501

0 1
 O                 -3.00820000    3.34000000   -0.42130000
 N                  1.55430000   -1.25680000    0.60650000
 N                 -1.18670000   -1.75320000    0.47940000
 N                 -0.82090000    4.19000000   -0.38740000
 N                  1.34860000   -1.49040000   -3.14180000
 C                  0.67250000   -0.25370000    0.39040000
 C                  1.07950000    1.10750000    0.21570000
 C                 -0.70090000   -0.50130000    0.32650000
 C                 -1.54160000    0.63690000    0.09350000
 C                  0.26700000    2.21810000   -0.01130000
 C                 -1.10430000    1.95160000   -0.07220000
 C                  2.51350000    0.83720000    0.36240000
 C                  2.75340000   -0.55800000    0.59000000
 C                 -2.79900000   -0.12640000    0.11670000
 C                  0.52360000    3.67360000   -0.21060000
 C                 -2.54750000   -1.52180000    0.34540000
 C                 -1.80480000    3.20780000   -0.31240000
 C                  1.53250000   -2.63930000    0.16740000
 C                  3.63560000    1.69810000    0.31600000
 C                 -0.73110000   -2.84240000    1.32270000
 C                  4.05160000   -1.06080000    0.76170000
 C                 -4.15000000    0.26700000   -0.04120000
 C                 -3.58920000   -2.45970000    0.41130000
 C                  2.31130000   -2.87980000   -1.12650000
 C                  4.92520000    1.18590000    0.48830000
 C                  5.12750000   -0.17190000    0.70750000
 C                 -5.18110000   -0.67640000    0.02640000
 C                 -4.90300000   -2.01840000    0.24940000
 C                  1.77230000   -2.10330000   -2.25240000
 H                  0.97250000    4.14210000    0.66850000
 H                  1.10420000    3.87470000   -1.11400000
 H                  1.88210000   -3.29000000    0.97320000
 H                  0.58450000   -2.92160000   -0.24980000
 H                 -1.02550000    5.17090000   -0.54980000
 H                  3.50310000    2.76350000    0.14640000
 H                 -1.53410000   -3.02640000    2.05310000
 H                 -0.66260000   -3.78930000    0.78020000
 H                  0.08640000   -2.57190000    1.99000000
 H                  4.23440000   -2.11090000    0.96960000
 H                 -4.40870000    1.30610000   -0.21700000
 H                 -3.39150000   -3.51520000    0.57390000
 H                  2.22700000   -3.94590000   -1.37830000
 H                  3.38400000   -2.70050000   -1.03690000
 H                  5.77780000    1.85890000    0.45200000
 H                  6.13780000   -0.54810000    0.84720000
 H                 -6.21120000   -0.35280000   -0.09790000
 H                 -5.71790000   -2.73620000    0.29610000

 1 17 2.0
 2 6 1.0 13 1.0 18 1.0
 3 8 1.0 16 1.0 20 1.0
 4 15 1.0 17 1.0 34 1.0
 5 29 3.0
 6 7 1.0 8 2.0
 7 10 2.0 12 1.0
 8 9 1.0
 9 11 2.0 14 1.0
 10 11 1.0 15 1.0
 11 17 1.0
 12 13 1.0 19 2.0
 13 21 2.0
 14 16 1.0 22 2.0
 15 30 1.0 31 1.0
 16 23 2.0
 17
 18 24 1.0 32 1.0 33 1.0
 19 25 1.0 35 1.0
 20 36 1.0 37 1.0 38 1.0
 21 26 1.0 39 1.0
 22 27 1.0 40 1.0
 23 28 1.0 41 1.0
 24 29 1.0 42 1.0 43 1.0
 25 26 2.0 44 1.0
 26 45 1.0
 27 28 2.0 46 1.0
 28 47 1.0
 29
 30
 31
 32
 33
 34
 35
 36
 37
 38
 39
 40
 41
 42
 43
 44
 45
 46
 47

