%nprocshared=112
%mem=10GB
%chk=Axitinib.chk
# opt freq b3lyp/6-311++g(d,p) scrf=(pcm,solvent=water) geom=connectivity

Axitinib

0 1
 S                 -3.27240000    0.42600000    1.83560000
 O                 -6.62350000   -0.79420000    1.10150000
 N                  0.52600000   -1.62960000   -1.19110000
 N                  1.86160000   -1.51570000   -1.28080000
 N                 -5.13760000   -2.02640000   -0.18320000
 N                  6.05070000    0.76970000    0.65520000
 C                  1.02540000   -0.19790000    0.39320000
 C                 -0.03770000   -0.86430000   -0.20600000
 C                  2.16180000   -0.64370000   -0.31540000
 C                 -1.36380000   -0.70410000    0.20150000
 C                 -1.59880000    0.17440000    1.26420000
 C                  0.77330000    0.68140000    1.45950000
 C                 -0.54990000    0.85630000    1.88390000
 C                 -4.05060000    1.05770000    0.35720000
 C                  3.48970000   -0.22160000   -0.04430000
 C                 -5.12780000    0.40640000   -0.24770000
 C                 -3.55460000    2.23940000   -0.19750000
 C                  4.63510000   -0.62180000   -0.65820000
 C                 -5.70640000    0.93470000   -1.40180000
 C                 -4.13320000    2.76760000   -1.35160000
 C                 -5.68800000   -0.83020000    0.28590000
 C                 -5.20890000    2.11530000   -1.95370000
 C                  5.99080000   -0.15260000   -0.31960000
 C                  7.06990000   -0.66840000   -0.99940000
 C                  8.32850000   -0.19450000   -0.64650000
 C                 -5.59960000   -3.33150000    0.23180000
 C                  7.29040000    1.20660000    0.97090000
 C                  8.44960000    0.76100000    0.35640000
 H                 -2.16100000   -1.24940000   -0.29170000
 H                  1.57540000    1.22070000    1.95390000
 H                 -0.74220000    1.53840000    2.70950000
 H                  0.05510000   -2.25120000   -1.83670000
 H                  3.58890000    0.50660000    0.75870000
 H                 -2.72230000    2.77330000    0.25500000
 H                  4.57730000   -1.35200000   -1.46280000
 H                 -6.54540000    0.43710000   -1.88150000
 H                 -3.74720000    3.68780000   -1.78050000
 H                 -5.65960000    2.52690000   -2.85210000
 H                 -4.39890000   -1.98640000   -0.87930000
 H                  6.96880000   -1.41360000   -1.78100000
 H                  9.21360000   -0.56890000   -1.15220000
 H                 -4.75270000   -4.02110000    0.20950000
 H                 -6.36470000   -3.66450000   -0.47360000
 H                 -6.02140000   -3.28810000    1.23890000
 H                  7.33060000    1.95130000    1.75900000
 H                  9.42060000    1.14470000    0.64780000

 1 11 1.0 14 1.0
 2 21 2.0
 3 4 1.0 8 1.0 32 1.0
 4 9 2.0
 5 21 1.0 26 1.0 39 1.0
 6 23 1.0 27 2.0
 7 8 2.0 9 1.0 12 1.0
 8 10 1.0
 9 15 1.0
 10 11 2.0 29 1.0
 11 13 1.0
 12 13 2.0 30 1.0
 13 31 1.0
 14 16 1.0 17 2.0
 15 18 2.0 33 1.0
 16 19 2.0 21 1.0
 17 20 1.0 34 1.0
 18 23 1.0 35 1.0
 19 22 1.0 36 1.0
 20 22 2.0 37 1.0
 21
 22 38 1.0
 23 24 2.0
 24 25 1.0 40 1.0
 25 28 2.0 41 1.0
 26 42 1.0 43 1.0 44 1.0
 27 28 1.0 45 1.0
 28 46 1.0
 29
 30
 31
 32
 33
 34
 35
 36
 37
 38
 39
 40
 41
 42
 43
 44
 45
 46

