%nprocshared=112
%mem=10GB
%chk=Tucatinib.chk
# opt freq b3lyp/6-311++g(d,p) scrf=(pcm,solvent=water) geom=connectivity

51039094

0 1
 O                 -4.66260000   -4.08540000   -0.39310000
 O                  4.15380000    2.17690000   -0.09100000
 N                 -2.96390000   -2.67480000    0.18750000
 N                 -5.16620000   -1.86110000   -0.27210000
 N                 -1.30890000    1.45510000   -0.79990000
 N                 -4.58090000    3.61970000    0.51860000
 N                 -2.27310000    3.50510000   -0.16520000
 N                  6.63650000   -1.09030000   -0.18610000
 N                  5.38560000   -2.35620000    1.14640000
 N                  7.30920000   -2.26380000   -0.08450000
 C                 -2.39630000   -4.03230000    0.08770000
 C                 -3.61470000   -4.94160000    0.04360000
 C                 -1.51640000   -4.30750000    1.30220000
 C                 -1.57390000   -4.11530000   -1.20170000
 C                 -4.21020000   -2.82260000   -0.14240000
 C                 -5.01180000   -0.48390000   -0.07520000
 C                 -3.63700000    1.51000000   -0.12170000
 C                 -3.78590000    0.12650000   -0.32090000
 C                 -6.08350000    0.28340000    0.36750000
 C                 -4.71210000    2.29570000    0.32500000
 C                 -2.43900000    2.18160000   -0.34880000
 C                 -5.92750000    1.65870000    0.56320000
 C                  0.07060000    1.63980000   -0.61690000
 C                  1.91590000    2.42540000    0.73010000
 C                  0.54510000    2.24280000    0.54790000
 C                  2.81210000    2.00520000   -0.25260000
 C                  0.96680000    1.21980000   -1.59970000
 C                  2.33760000    1.40240000   -1.41770000
 C                 -3.36870000    4.15240000    0.26290000
 C                  2.40610000    3.07350000    1.98270000
 C                  4.94840000    1.06580000   -0.09270000
 C                  4.60910000   -0.03750000    0.60410000
 C                  5.46570000   -1.17500000    0.57570000
 C                  6.17080000    1.12670000   -0.87620000
 C                  6.98040000    0.05600000   -0.90480000
 C                  6.51900000   -2.97520000    0.71810000
 H                 -3.89070000   -5.34180000    1.02560000
 H                 -3.50390000   -5.77750000   -0.65410000
 H                 -2.08040000   -4.19120000    2.23480000
 H                 -1.11130000   -5.32470000    1.27520000
 H                 -0.67540000   -3.60620000    1.34650000
 H                 -1.13880000   -5.11240000   -1.32900000
 H                 -2.18890000   -3.90030000   -2.08320000
 H                 -0.75590000   -3.38580000   -1.19330000
 H                 -6.12520000   -2.16780000   -0.40640000
 H                 -2.95560000   -0.45430000   -0.70610000
 H                 -7.04980000   -0.17340000    0.56640000
 H                 -6.78200000    2.23670000    0.91030000
 H                 -1.52930000    0.81420000   -1.55730000
 H                 -0.14540000    2.55960000    1.32580000
 H                  0.61050000    0.75100000   -2.51350000
 H                  3.02080000    1.07890000   -2.19850000
 H                 -3.26950000    5.21940000    0.42080000
 H                  1.58130000    3.41560000    2.61690000
 H                  3.01890000    3.94950000    1.74510000
 H                  3.00290000    2.36590000    2.56740000
 H                  3.70890000   -0.09410000    1.20610000
 H                  6.40900000    2.03110000   -1.42340000
 H                  7.90550000    0.03320000   -1.46750000
 H                  6.78120000   -3.98380000    1.00070000

 1 12 1.0 15 1.0
 2 26 1.0 31 1.0
 3 11 1.0 15 2.0
 4 15 1.0 16 1.0 45 1.0
 5 21 1.0 23 1.0 49 1.0
 6 20 1.0 29 2.0
 7 21 2.0 29 1.0
 8 10 1.0 33 1.0 35 1.0
 9 33 2.0 36 1.0
 10 36 2.0
 11 12 1.0 13 1.0 14 1.0
 12 37 1.0 38 1.0
 13 39 1.0 40 1.0 41 1.0
 14 42 1.0 43 1.0 44 1.0
 15
 16 18 2.0 19 1.0
 17 18 1.0 20 2.0 21 1.0
 18 46 1.0
 19 22 2.0 47 1.0
 20 22 1.0
 21
 22 48 1.0
 23 25 2.0 27 1.0
 24 25 1.0 26 2.0 30 1.0
 25 50 1.0
 26 28 1.0
 27 28 2.0 51 1.0
 28 52 1.0
 29 53 1.0
 30 54 1.0 55 1.0 56 1.0
 31 32 2.0 34 1.0
 32 33 1.0 57 1.0
 33
 34 35 2.0 58 1.0
 35 59 1.0
 36 60 1.0
 37
 38
 39
 40
 41
 42
 43
 44
 45
 46
 47
 48
 49
 50
 51
 52
 53
 54
 55
 56
 57
 58
 59
 60

