%nprocshared=112
%mem=10GB
%chk=Sulindac.chk
# opt freq b3lyp/6-311++g(d,p) scrf=(pcm,solvent=water) geom=connectivity

1548887

0 1
 S                 -6.01580000   -0.14680000   -0.55350000
 F                  1.81760000   -4.26290000    0.18230000
 O                  6.42400000    0.46210000   -0.47700000
 O                  4.53910000    0.58930000   -1.74420000
 O                 -6.74040000    0.09250000    0.74190000
 C                  2.91290000    0.55420000    0.52430000
 C                  2.09000000   -0.65980000    0.37420000
 C                  2.08790000    1.62240000    0.47520000
 C                  0.71120000    1.16050000    0.29370000
 C                  0.73870000   -0.30190000    0.23190000
 C                  4.38800000    0.48540000    0.69260000
 C                 -0.39110000    1.91340000    0.19790000
 C                  2.46970000   -1.99410000    0.35950000
 C                 -0.25090000   -1.25840000    0.07340000
 C                  2.43920000    3.06720000    0.57990000
 C                 -1.76270000    1.41060000    0.01480000
 C                  1.47860000   -2.96650000    0.20020000
 C                  0.13030000   -2.60160000    0.05830000
 C                  5.07730000    0.52170000   -0.64940000
 C                 -2.26310000    1.25340000   -1.26800000
 C                 -2.52860000    1.10390000    1.12870000
 C                 -4.34520000    0.46410000   -0.33010000
 C                 -3.56270000    0.77720000   -1.44170000
 C                 -3.82820000    0.62760000    0.95510000
 C                 -5.61590000   -1.91350000   -0.62020000
 H                  4.68830000   -0.41870000    1.23160000
 H                  4.73960000    1.34380000    1.27570000
 H                 -0.32470000    2.99760000    0.25270000
 H                  3.50610000   -2.29610000    0.46390000
 H                 -1.30110000   -1.04750000   -0.04360000
 H                  3.51720000    3.22110000    0.68540000
 H                  1.95450000    3.52030000    1.45090000
 H                  2.12090000    3.60780000   -0.31770000
 H                 -0.62290000   -3.37510000   -0.06520000
 H                 -1.66330000    1.49350000   -2.14190000
 H                 -2.13660000    1.22600000    2.13500000
 H                 -3.95140000    0.65480000   -2.44940000
 H                 -4.41540000    0.38600000    1.83700000
 H                  6.90300000    0.48130000   -1.33290000
 H                 -4.99160000   -2.11480000   -1.49400000
 H                 -6.54880000   -2.47570000   -0.70690000
 H                 -5.09540000   -2.21560000    0.29180000

 1 5 2.0 22 1.0 25 1.0
 2 17 1.0
 3 19 1.0 39 1.0
 4 19 2.0
 5
 6 7 1.0 8 2.0 11 1.0
 7 10 2.0 13 1.0
 8 9 1.0 15 1.0
 9 10 1.0 12 2.0
 10 14 1.0
 11 19 1.0 26 1.0 27 1.0
 12 16 1.0 28 1.0
 13 17 2.0 29 1.0
 14 18 2.0 30 1.0
 15 31 1.0 32 1.0 33 1.0
 16 20 2.0 21 1.0
 17 18 1.0
 18 34 1.0
 19
 20 23 1.0 35 1.0
 21 24 2.0 36 1.0
 22 23 2.0 24 1.0
 23 37 1.0
 24 38 1.0
 25 40 1.0 41 1.0 42 1.0
 26
 27
 28
 29
 30
 31
 32
 33
 34
 35
 36
 37
 38
 39
 40
 41
 42

