%nprocshared=112
%mem=10GB
%chk=Doxycycline.chk
# opt freq b3lyp/6-311++g(d,p) scrf=(pcm,solvent=water) geom=connectivity

Doxycycline

0 1
 O                  4.63110000   -2.72510000   -4.06580000
 O                  3.26160000    1.41670000   -1.94940000
 O                  0.63330000    0.72970000   -2.52680000
 O                  1.97560000    2.44180000   -4.49490000
 O                 -0.65950000   -0.30740000   -4.53430000
 O                  5.80770000    0.16660000   -5.99340000
 O                 -1.49790000   -1.49630000   -6.91400000
 O                  2.82290000    2.92180000   -6.81200000
 N                  5.89610000    1.18170000   -2.80800000
 N                  4.89690000    2.47540000   -7.42160000
 C                  4.05560000   -0.51480000   -3.17420000
 C                  2.32030000   -2.31110000   -3.48550000
 C                  3.62150000   -1.74340000   -4.06300000
 C                  2.96230000    0.62550000   -3.07730000
 C                  5.39710000    0.07210000   -3.67530000
 C                  1.83330000   -3.69050000   -3.99500000
 C                  1.26620000   -1.24380000   -3.62020000
 C                  1.55640000    0.01790000   -2.89640000
 C                  2.97140000    1.53310000   -4.34350000
 C                  1.03330000   -3.59830000   -5.26000000
 C                  5.10960000    0.56270000   -5.07350000
 C                  0.21510000   -1.34340000   -4.48440000
 C                  3.94970000    1.47580000   -5.30450000
 C                  0.15390000   -2.50560000   -5.45770000
 C                  0.90260000   -4.33350000   -2.94340000
 C                  1.08700000   -4.65680000   -6.17860000
 C                  6.29990000    0.69220000   -1.47380000
 C                  7.05540000    1.87020000   -3.41210000
 C                 -0.66410000   -2.51420000   -6.62530000
 C                  3.86000000    2.32640000   -6.55790000
 C                  0.27890000   -4.64770000   -7.30810000
 C                 -0.59260000   -3.58760000   -7.52850000
 H                  4.18880000   -0.93760000   -2.15670000
 H                  2.52840000   -2.48360000   -2.40400000
 H                  3.43910000   -1.44990000   -5.11990000
 H                  6.18130000   -0.71960000   -3.72030000
 H                  2.68560000   -4.39950000   -4.08830000
 H                  1.44090000   -4.47880000   -1.98240000
 H                  0.00650000   -3.70410000   -2.75240000
 H                  0.56280000   -5.33450000   -3.28800000
 H                  4.77750000   -3.01920000   -3.12850000
 H                  2.63790000    2.18840000   -1.91960000
 H                  1.74460000   -5.50060000   -6.00910000
 H                  7.08100000   -0.09650000   -1.55210000
 H                  6.69740000    1.52800000   -0.85750000
 H                  5.43700000    0.29850000   -0.90480000
 H                  7.42020000    2.68040000   -2.74360000
 H                  7.88870000    1.15910000   -3.60780000
 H                  6.77140000    2.37120000   -4.36070000
 H                  1.27510000    2.59700000   -3.85020000
 H                 -1.47190000   -0.26770000   -5.04600000
 H                  0.32310000   -5.46830000   -8.01270000
 H                 -1.21140000   -3.59430000   -8.41730000
 H                  5.81960000    2.05270000   -7.27550000
 H                  4.78490000    3.06670000   -8.25880000
 H                 -2.05210000   -1.48040000   -7.70740000

 1 13 1.0 41 1.0
 2 14 1.0 42 1.0
 3 18 2.0
 4 19 1.0 50 1.0
 5 22 1.0 51 1.0
 6 21 2.0
 7 29 1.0 56 1.0
 8 30 2.0
 9 27 1.0 28 1.0 15 1.0
 10 30 1.0 54 1.0 55 1.0
 11 13 1.0 14 1.0 15 1.0 33 1.0
 12 13 1.0 16 1.0 17 1.0 34 1.0
 13 35 1.0
 14 18 1.0 19 1.0
 15 21 1.0 36 1.0
 16 20 1.0 37 1.0 25 1.0
 17 18 1.0 22 2.0
 18
 19 23 2.0
 20 24 1.5 26 1.5
 21 23 1.0
 22 24 1.0
 23 30 1.0
 24 29 1.5
 25 38 1.0 39 1.0 40 1.0
 26 31 1.5 43 1.0
 27 44 1.0 45 1.0 46 1.0
 28 47 1.0 48 1.0 49 1.0
 29 32 1.5
 30
 31 32 1.5 52 1.0
 32 53 1.0
 33
 34
 35
 36
 37
 38
 39
 40
 41
 42
 43
 44
 45
 46
 47
 48
 49
 50
 51
 52
 53
 54
 55
 56

