%nprocshared=112
%mem=10GB
%chk=Polaprezinc.chk
# opt freq b3lyp/6-311++g(d,p) scrf=(pcm,solvent=water) geom=connectivity

439224

0 1
 O                 -1.18270000    2.89690000   -0.58760000
 O                 -1.89010000    0.15430000    1.49850000
 O                  0.71360000    3.50220000    0.48370000
 N                 -0.69500000    0.33330000   -0.48280000
 N                  1.76430000   -1.55290000   -0.39560000
 N                  3.79220000   -1.91870000    0.43240000
 N                 -4.81720000   -2.22950000   -0.43760000
 C                  0.37260000    1.14740000    0.04710000
 C                  1.68550000    0.91610000   -0.71340000
 C                  2.37830000   -0.36050000   -0.29650000
 C                 -1.75190000   -0.09940000    0.30480000
 C                 -2.73790000   -0.93680000   -0.49030000
 C                  0.00230000    2.62290000    0.00890000
 C                  3.61000000   -0.57740000    0.20620000
 C                 -3.90620000   -1.42020000    0.36230000
 C                  2.66230000   -2.47760000    0.05990000
 H                  0.49280000    0.89740000    1.10940000
 H                  2.37920000    1.74780000   -0.53400000
 H                  1.50960000    0.89130000   -1.79690000
 H                 -0.70450000    0.13280000   -1.47910000
 H                 -3.10470000   -0.32800000   -1.32610000
 H                 -2.19520000   -1.79310000   -0.91000000
 H                  0.83010000   -1.74090000   -0.73600000
 H                 -4.44920000   -0.56620000    0.78270000
 H                 -3.53860000   -2.01870000    1.20310000
 H                  4.38900000    0.13820000    0.42510000
 H                  2.43230000   -3.53310000    0.09370000
 H                 -5.18930000   -1.67110000   -1.20480000
 H                 -5.61730000   -2.50100000    0.13230000
 H                 -1.38050000    3.85760000   -0.58640000

 1 13 1.0 30 1.0
 2 11 2.0
 3 13 2.0
 4 8 1.0 11 1.0 20 1.0
 5 10 1.0 16 1.0 23 1.0
 6 14 1.0 16 2.0
 7 15 1.0 28 1.0 29 1.0
 8 9 1.0 13 1.0 17 1.0
 9 10 1.0 18 1.0 19 1.0
 10 14 2.0
 11 12 1.0
 12 15 1.0 21 1.0 22 1.0
 13
 14 26 1.0
 15 24 1.0 25 1.0
 16 27 1.0
 17
 18
 19
 20
 21
 22
 23
 24
 25
 26
 27
 28
 29
 30

