%nprocshared=112
%mem=10GB
%chk=Lapatinib.chk
# opt freq b3lyp/6-311++g(d,p) scrf=(pcm,solvent=water) geom=connectivity

Lapatinib

0 1
 Cl                 3.39440000    1.22790000    1.69710000
 S                 -0.29150000    3.65180000   -0.13540000
 F                  8.80670000    1.97960000   -1.21830000
 O                 -5.07590000    1.72500000    0.48290000
 O                 -0.11920000    3.40840000    1.37210000
 O                 -0.53570000    2.20040000   -0.57660000
 O                  4.68800000   -0.86470000    0.04970000
 N                 -4.25270000    4.65070000    0.19720000
 N                 -0.91670000   -1.25460000    0.35860000
 N                 -3.46380000   -4.34080000   -0.92500000
 N                 -1.33330000   -3.52740000   -0.36740000
 C                 -2.97770000    3.95770000    0.45060000
 C                 -1.85400000    4.56180000   -0.39330000
 C                 -5.34770000    4.13140000    1.03540000
 C                 -5.83270000    2.79100000    0.55780000
 C                 -5.20510000   -0.62390000   -0.20270000
 C                 -5.78570000    0.71800000    0.03010000
 C                 -3.20880000   -2.05140000   -0.24310000
 C                 -3.82480000   -0.80350000   -0.00930000
 C                 -7.11340000    2.47750000    0.14440000
 C                 -7.08640000    1.13910000   -0.19350000
 C                 -4.01910000   -3.12860000   -0.67540000
 C                 -5.98580000   -1.70840000   -0.62890000
 C                 -1.81110000   -2.28360000   -0.09430000
 C                  1.33400000    4.12220000   -0.78860000
 C                 -5.39490000   -2.95210000   -0.85960000
 C                  0.51600000   -1.23630000    0.26680000
 C                 -2.13380000   -4.54290000   -0.77430000
 C                  1.20470000   -0.20180000    0.92730000
 C                  1.27190000   -2.16480000   -0.48130000
 C                  3.33950000   -1.01620000    0.11140000
 C                  2.59540000   -0.09260000    0.85520000
 C                  2.66430000   -2.05540000   -0.55530000
 C                  5.56510000   -1.65480000   -0.66600000
 C                  6.95690000   -1.10980000   -0.51650000
 C                  7.24440000    0.19870000   -0.94110000
 C                  7.98140000   -1.89290000    0.04150000
 C                  8.53680000    0.71600000   -0.80740000
 C                  9.27280000   -1.37200000    0.17280000
 C                  9.55040000   -0.06930000   -0.25080000
 H                 -3.05640000    2.89140000    0.16800000
 H                 -2.70700000    4.03070000    1.52770000
 H                 -1.70440000    5.62560000   -0.11190000
 H                 -2.12500000    4.49630000   -1.46850000
 H                 -5.02560000    4.05740000    2.09760000
 H                 -6.19950000    4.84540000    0.99400000
 H                 -4.11970000    5.65800000    0.45150000
 H                 -3.25600000    0.05510000    0.30290000
 H                 -7.96560000    3.14230000    0.09360000
 H                 -7.91750000    0.55720000   -0.56740000
 H                 -7.05000000   -1.60050000   -0.78860000
 H                  2.07460000    3.33690000   -0.53020000
 H                  1.27890000    4.21070000   -1.89300000
 H                  1.65340000    5.08430000   -0.33820000
 H                 -6.00970000   -3.77960000   -1.19220000
 H                 -1.32500000   -0.42660000    0.80650000
 H                  0.65460000    0.53280000    1.50270000
 H                  0.82490000   -2.96770000   -1.03870000
 H                 -1.70900000   -5.51590000   -0.97880000
 H                  3.20600000   -2.78210000   -1.14590000
 H                  5.29420000   -1.63890000   -1.74440000
 H                  5.50750000   -2.70230000   -0.29650000
 H                  6.46640000    0.81560000   -1.37430000
 H                  7.78330000   -2.90400000    0.37440000
 H                 10.05900000   -1.97870000    0.60300000
 H                 10.55090000    0.33060000   -0.14760000

 1 32 1.0
 2 5 2.0 6 2.0 13 1.0 25 1.0
 3 38 1.0
 4 15 1.5 17 1.5
 5
 6
 7 31 1.0 34 1.0
 8 12 1.0 14 1.0 47 1.0
 9 24 1.0 27 1.0 56 1.0
 10 22 1.5 28 1.5
 11 24 1.5 28 1.5
 12 13 1.0 41 1.0 42 1.0
 13 43 1.0 44 1.0
 14 15 1.0 45 1.0 46 1.0
 15 20 1.5
 16 17 1.0 19 1.5 23 1.5
 17 21 1.5
 18 19 1.5 22 1.5 24 1.5
 19 48 1.0
 20 21 1.5 49 1.0
 21 50 1.0
 22 26 1.5
 23 26 1.5 51 1.0
 24
 25 52 1.0 53 1.0 54 1.0
 26 55 1.0
 27 29 1.5 30 1.5
 28 59 1.0
 29 32 1.5 57 1.0
 30 33 1.5 58 1.0
 31 32 1.5 33 1.5
 32
 33 60 1.0
 34 35 1.0 61 1.0 62 1.0
 35 36 1.5 37 1.5
 36 38 1.5 63 1.0
 37 39 1.5 64 1.0
 38 40 1.5
 39 40 1.5 65 1.0
 40 66 1.0
 41
 42
 43
 44
 45
 46
 47
 48
 49
 50
 51
 52
 53
 54
 55
 56
 57
 58
 59
 60
 61
 62
 63
 64
 65
 66

