%nprocshared=112
%mem=10GB
%chk=Nutlin3.chk
# opt freq b3lyp/6-311++g(d,p) scrf=(pcm,solvent=water) geom=connectivity

11433190

0 1
 Cl                -4.93210000    1.43490000    4.14090000
 Cl                -7.12120000   -2.49450000   -1.74550000
 O                  1.63830000    0.86600000    1.75430000
 O                  3.10080000   -0.26540000   -0.97200000
 O                  1.82420000    4.35580000   -2.62540000
 O                  5.06990000   -3.58020000    1.82720000
 N                  0.23280000    0.30670000    0.01750000
 N                 -0.43050000   -1.71260000   -0.85930000
 N                  0.86780000    2.57310000    0.38860000
 N                  2.49970000    4.64020000   -0.45960000
 C                 -1.12200000    0.56700000   -0.45660000
 C                 -1.39510000   -0.67660000   -1.33260000
 C                  0.47660000   -1.05840000   -0.19670000
 C                 -2.08400000    0.78600000    0.70400000
 C                 -2.83220000   -1.13270000   -1.43610000
 C                  0.98500000    1.22860000    0.76960000
 C                  1.68550000   -1.70660000    0.32230000
 C                  1.19440000    3.62640000    1.33980000
 C                  0.68920000    3.02760000   -0.98780000
 C                 -1.81080000    0.22520000    1.95160000
 C                 -3.23780000    1.54770000    0.51920000
 C                  2.51800000    4.23430000    0.93220000
 C                 -3.65210000   -0.63070000   -2.44680000
 C                 -3.33850000   -2.05600000   -0.52130000
 C                  2.95280000   -1.28780000   -0.08300000
 C                  1.74010000    4.03500000   -1.43770000
 C                  1.55550000   -2.75470000    1.23340000
 C                 -2.69150000    0.42590000    3.01440000
 C                 -4.11860000    1.74830000    1.58210000
 C                 -4.97840000   -1.05180000   -2.54250000
 C                 -4.66480000   -2.47710000   -0.61710000
 C                 -3.84540000    1.18750000    2.82970000
 C                  4.09020000   -1.91730000    0.42280000
 C                  2.69290000   -3.38420000    1.73920000
 C                 -5.48470000   -1.97500000   -1.62760000
 C                  3.96020000   -2.96550000    1.33380000
 C                  3.77420000   -0.56180000   -2.19350000
 C                  5.02930000    0.29170000   -2.29330000
 C                  2.82810000   -0.31690000   -3.35900000
 C                  6.33420000   -3.10190000    1.37050000
 H                 -1.16480000    1.45530000   -1.08700000
 H                 -1.05810000   -0.44710000   -2.35550000
 H                  0.38830000    4.36860000    1.30500000
 H                  1.24690000    3.23070000    2.35900000
 H                 -0.28930000    3.51380000   -1.05950000
 H                  0.75180000    2.18340000   -1.68080000
 H                 -0.94110000   -0.39650000    2.13660000
 H                 -3.46090000    1.99240000   -0.44680000
 H                  2.75350000    5.11370000    1.53900000
 H                  3.33310000    3.51020000    1.04050000
 H                 -3.27030000    0.09160000   -3.16330000
 H                 -2.71870000   -2.45670000    0.27620000
 H                  0.57400000   -3.08880000    1.56040000
 H                  3.18020000    5.33320000   -0.75560000
 H                 -2.46920000   -0.02200000    3.97960000
 H                 -5.01370000    2.34410000    1.42350000
 H                 -5.60600000   -0.65120000   -3.33440000
 H                 -5.04620000   -3.19580000    0.10360000
 H                  5.05300000   -1.54720000    0.09070000
 H                  2.58550000   -4.19960000    2.44920000
 H                  4.07350000   -1.61790000   -2.23760000
 H                  4.77770000    1.35760000   -2.25460000
 H                  5.57060000    0.09500000   -3.22370000
 H                  5.70380000    0.10030000   -1.45300000
 H                  2.47730000    0.72110000   -3.36530000
 H                  3.31040000   -0.53050000   -4.31760000
 H                  1.93730000   -0.94790000   -3.26760000
 H                  6.45450000   -3.24730000    0.29150000
 H                  6.50440000   -2.06280000    1.67210000
 H                  7.10420000   -3.70630000    1.86110000

 1 32 1.0
 2 35 1.0
 3 16 2.0
 4 25 1.0 37 1.0
 5 26 2.0
 6 36 1.0 40 1.0
 7 11 1.0 13 1.0 16 1.0
 8 12 1.0 13 2.0
 9 16 1.0 18 1.0 19 1.0
 10 22 1.0 26 1.0 54 1.0
 11 12 1.0 14 1.0 41 1.0
 12 15 1.0 42 1.0
 13 17 1.0
 14 20 2.0 21 1.0
 15 23 2.0 24 1.0
 16
 17 25 2.0 27 1.0
 18 22 1.0 43 1.0 44 1.0
 19 26 1.0 45 1.0 46 1.0
 20 28 1.0 47 1.0
 21 29 2.0 48 1.0
 22 49 1.0 50 1.0
 23 30 1.0 51 1.0
 24 31 2.0 52 1.0
 25 33 1.0
 26
 27 34 2.0 53 1.0
 28 32 2.0 55 1.0
 29 32 1.0 56 1.0
 30 35 2.0 57 1.0
 31 35 1.0 58 1.0
 32
 33 36 2.0 59 1.0
 34 36 1.0 60 1.0
 35
 36
 37 38 1.0 39 1.0 61 1.0
 38 62 1.0 63 1.0 64 1.0
 39 65 1.0 66 1.0 67 1.0
 40 68 1.0 69 1.0 70 1.0
 41
 42
 43
 44
 45
 46
 47
 48
 49
 50
 51
 52
 53
 54
 55
 56
 57
 58
 59
 60
 61
 62
 63
 64
 65
 66
 67
 68
 69
 70

