%nprocshared=112
%mem=10GB
%chk=Aspirin.chk
# opt freq b3lyp/6-311++g(d,p) scrf=(pcm,solvent=water) geom=connectivity

Aspirin

0 1
 O                  1.23330000    0.55400000    0.77920000
 O                 -0.69520000   -2.71480000   -0.75020000
 O                  0.79580000   -2.18430000    0.86850000
 O                  1.78130000    0.81050000   -1.48210000
 C                 -0.08570000    0.60880000    0.44030000
 C                 -0.79270000   -0.55150000    0.12440000
 C                 -0.72880000    1.84640000    0.41330000
 C                 -2.14260000   -0.47410000   -0.21840000
 C                 -2.07870000    1.92380000    0.07060000
 C                 -2.78550000    0.76360000   -0.24530000
 C                 -0.14090000   -1.85360000    0.14770000
 C                  2.10940000    0.67150000   -0.31130000
 C                  3.53050000    0.59960000    0.16350000
 H                 -0.18510000    2.75450000    0.65930000
 H                 -2.72470000   -1.36050000   -0.45640000
 H                 -2.57970000    2.88720000    0.05060000
 H                 -3.83740000    0.82380000   -0.50900000
 H                  3.72900000    1.41840000    0.85930000
 H                  4.20450000    0.69690000   -0.69240000
 H                  3.71050000   -0.36590000    0.64260000
 H                 -0.25550000   -3.59160000   -0.73370000

 1 5 1.0 12 1.0
 2 11 1.0 21 1.0
 3 11 2.0
 4 12 2.0
 5 6 1.0 7 2.0
 6 8 2.0 11 1.0
 7 9 1.0 14 1.0
 8 10 1.0 15 1.0
 9 10 2.0 16 1.0
 10 17 1.0
 11
 12 13 1.0
 13 18 1.0 19 1.0 20 1.0
 14
 15
 16
 17
 18
 19
 20
 21

