%nprocshared=112
%mem=10GB
%chk=losartan.chk
# opt freq b3lyp/6-311++g(d,p) scrf=(pcm,solvent=water) geom=connectivity

lovartan

0 1
 Cl                 4.32160000    3.36130000   -1.26790000
 O                  1.19470000    3.33110000    1.09220000
 N                  2.80160000    0.57270000    0.89040000
 N                  4.00160000    0.69930000   -0.97390000
 N                 -2.94050000    1.63710000   -1.67070000
 N                 -2.52840000   -0.43970000   -2.47380000
 N                 -2.12830000    1.61490000   -2.73690000
 N                 -1.85630000    0.40540000   -3.24590000
 C                  3.41600000   -0.08090000   -0.11970000
 C                  3.39340000   -1.58640000   -0.20220000
 C                  2.06740000   -0.00540000    1.99290000
 C                  4.77650000   -2.15150000   -0.53750000
 C                  3.00930000    1.90490000    0.66890000
 C                  0.60930000   -0.16650000    1.65740000
 C                  4.73950000   -3.67510000   -0.65470000
 C                  3.75220000    1.95820000   -0.48690000
 C                  2.49150000    2.96040000    1.55950000
 C                  0.16810000   -1.34580000    1.07260000
 C                 -0.27520000    0.86620000    1.93700000
 C                 -2.08070000   -0.46370000    1.03810000
 C                 -1.18340000   -1.49510000    0.76140000
 C                 -1.62670000    0.71700000    1.62590000
 C                  6.10160000   -4.23870000   -1.02700000
 C                 -3.48280000   -0.61900000    0.71600000
 C                 -3.99990000   -0.23860000   -0.52480000
 C                 -4.33170000   -1.16600000    1.68120000
 C                 -5.35760000   -0.40410000   -0.79850000
 C                 -5.68940000   -1.33140000    1.40750000
 C                 -3.16090000    0.32960000   -1.54830000
 C                 -6.20240000   -0.95040000    0.16770000
 H                  3.06790000   -2.06520000    0.72120000
 H                  2.67970000   -1.87150000   -0.98490000
 H                  2.51950000   -0.95620000    2.28860000
 H                  2.19120000    0.62390000    2.87990000
 H                  5.49560000   -1.85680000    0.23760000
 H                  5.13630000   -1.72420000   -1.48210000
 H                  4.41540000   -4.11440000    0.29590000
 H                  4.00880000   -3.97270000   -1.41570000
 H                  3.12800000    3.85120000    1.52910000
 H                  2.41840000    2.66840000    2.60850000
 H                  0.84230000   -2.16920000    0.86630000
 H                  0.04210000    1.76110000    2.45810000
 H                 -1.52150000   -2.42340000    0.30700000
 H                 -2.31550000    1.52460000    1.86230000
 H                  6.85120000   -3.98430000   -0.27080000
 H                  6.43880000   -3.84560000   -1.99130000
 H                  6.05250000   -5.32950000   -1.10330000
 H                 -3.95120000   -1.46930000    2.65410000
 H                  1.29970000    3.72660000    0.20970000
 H                 -5.77510000   -0.11320000   -1.75970000
 H                 -6.34730000   -1.75680000    2.15970000
 H                 -7.25960000   -1.07950000   -0.04530000
 H                 -1.74120000    2.46400000   -3.13470000

 1 16 1.0
 2 17 1.0 49 1.0
 3 9 1.0 11 1.0 13 1.0
 4 9 2.0 16 1.0
 5 7 1.0 29 2.0
 6 8 2.0 29 1.0
 7 8 1.0 53 1.0
 8
 9 10 1.0
 10 12 1.0 31 1.0 32 1.0
 11 14 1.0 33 1.0 34 1.0
 12 15 1.0 35 1.0 36 1.0
 13 16 2.0 17 1.0
 14 18 2.0 19 1.0
 15 23 1.0 37 1.0 38 1.0
 16
 17 39 1.0 40 1.0
 18 21 1.0 41 1.0
 19 22 2.0 42 1.0
 20 21 2.0 22 1.0 24 1.0
 21 43 1.0
 22 44 1.0
 23 45 1.0 46 1.0 47 1.0
 24 25 1.0 26 2.0
 25 27 2.0 29 1.0
 26 28 1.0 48 1.0
 27 30 1.0 50 1.0
 28 30 2.0 51 1.0
 29
 30 52 1.0
 31
 32
 33
 34
 35
 36
 37
 38
 39
 40
 41
 42
 43
 44
 45
 46
 47
 48
 49
 50
 51
 52
 53

