%nprocshared=112
%mem=10GB
%chk=Amrinone.chk
# opt freq=raman b3lyp/6-311++g(d,p) scrf=(pcm, solvent=water) geom=connectivity

Amrinone

0 1
 O                  4.10262200   -0.65379200   -0.11812300
 N                  1.98897600   -1.50774700   -0.31409100
 N                  3.14714600    1.85314400    0.33507600
 N                 -4.25600500    0.20788500    0.01349700
 C                  0.03478200   -0.19638400   -0.02370900
 C                 -1.43758700   -0.05787000   -0.00299100
 C                  0.88910700    0.93066500    0.20098800
 C                  0.62107900   -1.40262600   -0.28403400
 C                  2.25573100    0.82212700    0.16576600
 C                  2.88560800   -0.47572800   -0.09820800
 C                 -2.07304400    1.09070500   -0.49379600
 C                 -2.27088400   -1.06417300    0.50464300
 C                 -3.46195900    1.17197400   -0.46252700
 C                 -3.65070500   -0.88710100    0.48458700
 H                  0.43886700    1.89183700    0.42521900
 H                  0.06907200   -2.30469000   -0.50548300
 H                  2.42028500   -2.40189500   -0.50942400
 H                 -1.49855900    1.90438500   -0.92036900
 H                 -1.85241400   -1.96497200    0.93821700
 H                 -3.96227100    2.05669900   -0.84673100
 H                 -4.30300800   -1.66159100    0.87876400
 H                  2.84736900    2.68192300    0.82182500
 H                  4.10610600    1.56613100    0.47728400

 1 10 2.0
 2 8 1.5 10 1.0 17 1.0
 3 9 1.5 22 1.0 23 1.0
 4 13 1.5 14 1.5
 5 6 1.0 7 1.5 8 2.0
 6 11 1.5 12 1.5
 7 9 2.0 15 1.0
 8 16 1.0
 9 10 1.0
 10
 11 13 1.5 18 1.0
 12 14 1.5 19 1.0
 13 20 1.0
 14 21 1.0
 15
 16
 17
 18
 19
 20
 21
 22
 23

